% File represents an instance of a Composite Structure problem to be solved by a CP framework
% Created on 2025-03-26 10:41:19.202
T = 50;
n = 9;
m = 12;
edges = [(1, 2),
(4, 5),
(7, 8),
(2, 3),
(5, 6),
(8, 9),
(1, 4),
(4, 7),
(2, 5),
(5, 8),
(3, 6),
(6, 9)];
counts = [|10, 20, 10, 10,
|8, 20, 8, 8,
|8, 14, 8, 8,
|10, 16, 10, 8,
|8, 16, 8, 6,
|8, 10, 8, 6,
|10, 10, 10, 8,
|8, 10, 8, 6,
|8, 4, 8, 6|];
